12
-1 44 34 57 78 44 52 25 31 12 26 22 
29 -1 84 43 44 20 11 26 83 95 67 64 
16 15 -1 71 23 77 96 22 77 19 95 94 
50 62 26 -1 74 86 4 50 68 39 10 43 
45 29 43 97 -1 46 62 81 25 55 12 5 
9 46 17 6 97 -1 18 35 45 70 28 92 
99 44 26 35 20 15 -1 42 35 55 93 78 
48 97 15 73 56 86 21 -1 52 48 30 79 
11 47 16 90 97 53 21 62 -1 15 39 43 
20 87 67 60 55 20 60 53 79 -1 10 7 
10 55 50 3 39 47 56 5 3 80 -1 82 
83 52 67 81 92 92 63 63 1 35 95 -1 
